20
1 0 25
2 0 36
2 1 1
3 0 24
3 1 1
3 2 36
4 0 5
4 1 26
4 2 30
4 3 28
5 0 23
5 1 12
5 2 1
5 3 16
5 4 27
6 0 25
6 1 20
6 2 3
6 3 25
6 4 31
6 5 37
7 0 16
7 1 11
7 2 17
7 3 27
7 4 33
7 5 26
7 6 8
8 0 37
8 1 22
8 2 5
8 3 7
8 4 1
8 5 9
8 6 39
8 7 34
9 0 21
9 1 28
9 2 28
9 3 17
9 4 22
9 5 22
9 6 7
9 7 6
9 8 40
10 0 8
10 1 40
10 2 29
10 3 4
10 4 31
10 5 1
10 6 24
10 7 29
10 8 38
10 9 6
11 0 24
11 1 23
11 2 19
11 3 3
11 4 10
11 5 35
11 6 20
11 7 10
11 8 13
11 9 10
11 10 1
12 0 24
12 1 16
12 2 37
12 3 3
12 4 13
12 5 3
12 6 28
12 7 31
12 8 5
12 9 31
12 10 33
12 11 25
13 0 32
13 1 31
13 2 3
13 3 30
13 4 23
13 5 35
13 6 27
13 7 28
13 8 3
13 9 16
13 10 27
13 11 12
13 12 26
14 0 31
14 1 7
14 2 19
14 3 17
14 4 6
14 5 3
14 6 5
14 7 7
14 8 3
14 9 28
14 10 18
14 11 7
14 12 31
14 13 18
15 0 12
15 1 20
15 2 23
15 3 37
15 4 18
15 5 7
15 6 37
15 7 20
15 8 35
15 9 28
15 10 29
15 11 10
15 12 13
15 13 14
15 14 31
16 0 27
16 1 6
16 2 12
16 3 38
16 4 28
16 5 26
16 6 36
16 7 12
16 8 28
16 9 29
16 10 12
16 11 34
16 12 25
16 13 21
16 14 12
16 15 9
17 0 27
17 1 13
17 2 40
17 3 7
17 4 35
17 5 5
17 6 1
17 7 21
17 8 17
17 9 4
17 10 5
17 11 25
17 12 34
17 13 15
17 14 8
17 15 15
17 16 15
18 0 35
18 1 23
18 2 20
18 3 38
18 4 22
18 5 28
18 6 36
18 7 27
18 8 38
18 9 28
18 10 12
18 11 33
18 12 25
18 13 18
18 14 9
18 15 33
18 16 29
18 17 1
19 0 36
19 1 11
19 2 1
19 3 1
19 4 21
19 5 24
19 6 39
19 7 24
19 8 32
19 9 24
19 10 33
19 11 20
19 12 7
19 13 24
19 14 29
19 15 27
19 16 40
19 17 35
19 18 11
